(set-logic QF_S)
(declare-const x String)
(declare-const y String)
(assert (str.in.re x (re.+ (re.++ (re.+ (str.to.re "")) (str.to.re "")))))
(assert (= (str.to.int x) 2))
(assert (not (= x "'' ''('' ''z")))
(assert (not (= x "$")))
(assert (not (= x "'\\r'F9MJ")))
(check-sat)
